NAME : tsp20_17.130.tour
COMMENT : Length = 130
COMMENT : Found by LKH [Keld Helsgaun]
TYPE : TOUR
DIMENSION : 20
TOUR_SECTION
1
5
11
16
9
14
10
15
2
4
18
3
20
19
7
6
8
13
17
12
-1
EOF
